0
0
0
0
0
0
0
0
0
0
0
0
0
0
0
0
0
0
0
11
11
11
11
23
23
23
23
23
29
36
36
36
36
36
41
75
102
125
168
203
302
472
669
878
987
1100
1143
1167
1167
1172
1182
1188
1195
1212
1220
1231
1253
1282
1323
1369
1395
1415
1428
1428
1428
1428
1428
1428
1428
1428
1428
1428
1428
1428
1428
1428
1428
1428
1428
1428
1428
1428
1428
1428
1428
1428
1428
1428
1428
1428
1428
1428
1428
1428
1428
1428
1428
1428
1428
